
Gurobi 9.0.1 (linux64) logging started Thu Apr 30 15:36:53 2020

Gurobi Optimizer version 9.0.1 build v9.0.1rc0 (linux64)
Optimize a model with 13307 rows, 12060 columns and 202950 nonzeros
Model fingerprint: 0xcce38239
Variable types: 0 continuous, 12060 integer (12032 binary)
Coefficient statistics:
  Matrix range     [1e+00, 1e+01]
  Objective range  [3e+00, 1e+02]
  Bounds range     [1e+00, 1e+00]
  RHS range        [1e+00, 1e+00]

User MIP start produced solution with objective 998 (0.27s)
Loaded user MIP start with objective 998

Presolve removed 5054 rows and 3900 columns
Presolve time: 3.14s
Presolved: 8253 rows, 8160 columns, 165405 nonzeros
Variable types: 0 continuous, 8160 integer (8134 binary)

Root simplex log...

Iteration    Objective       Primal Inf.    Dual Inf.      Time
    2311    5.5521463e+02   7.406030e+03   0.000000e+00      5s
    5965    5.7255762e+02   5.099895e+03   0.000000e+00     10s
    8667    5.7924740e+02   6.334540e+02   0.000000e+00     15s
   10845    5.8303744e+02   3.734278e+02   0.000000e+00     20s
   12700    5.8383406e+02   0.000000e+00   0.000000e+00     24s

Root relaxation: objective 5.838341e+02, 12700 iterations, 20.78 seconds

    Nodes    |    Current Node    |     Objective Bounds      |     Work
 Expl Unexpl |  Obj  Depth IntInf | Incumbent    BestBd   Gap | It/Node Time

     0     0  583.83406    0 1395  998.00000  583.83406  41.5%     -   26s
     0     0  604.83191    0 1365  998.00000  604.83191  39.4%     -   47s
     0     0  605.44924    0 1395  998.00000  605.44924  39.3%     -   51s
     0     0  605.61674    0 1416  998.00000  605.61674  39.3%     -   54s
     0     0  605.66631    0 1387  998.00000  605.66631  39.3%     -   56s
     0     0  605.66686    0 1382  998.00000  605.66686  39.3%     -   56s
     0     0  616.27140    0 1483  998.00000  616.27140  38.2%     -   82s
     0     0  618.77929    0 1463  998.00000  618.77929  38.0%     -   95s
     0     0  618.80014    0 1449  998.00000  618.80014  38.0%     -   96s
     0     0  618.80208    0 1472  998.00000  618.80208  38.0%     -   97s
     0     0  627.81469    0 1567  998.00000  627.81469  37.1%     -  137s
     0     0  628.67173    0 1595  998.00000  628.67173  37.0%     -  147s
     0     0  628.71660    0 1591  998.00000  628.71660  37.0%     -  149s
     0     0  628.73462    0 1595  998.00000  628.73462  37.0%     -  150s
     0     0  628.73601    0 1584  998.00000  628.73601  37.0%     -  151s
     0     0  632.14542    0 1602  998.00000  632.14542  36.7%     -  185s
     0     0  632.59253    0 1612  998.00000  632.59253  36.6%     -  194s
     0     0  632.64177    0 1622  998.00000  632.64177  36.6%     -  196s
     0     0  632.65047    0 1631  998.00000  632.65047  36.6%     -  198s
     0     0  633.13887    0 1657  998.00000  633.13887  36.6%     -  210s
     0     0  633.19375    0 1650  998.00000  633.19375  36.6%     -  214s
     0     0  633.20538    0 1651  998.00000  633.20538  36.6%     -  215s
     0     0  634.41286    0 1607  998.00000  634.41286  36.4%     -  227s
     0     0  634.47011    0 1615  998.00000  634.47011  36.4%     -  233s
     0     0  634.49084    0 1633  998.00000  634.49084  36.4%     -  234s
     0     0  634.49572    0 1633  998.00000  634.49572  36.4%     -  235s
     0     0  635.04811    0 1651  998.00000  635.04811  36.4%     -  246s
     0     0  635.10512    0 1667  998.00000  635.10512  36.4%     -  252s
     0     0  635.12430    0 1659  998.00000  635.12430  36.4%     -  254s
     0     0  635.12914    0 1651  998.00000  635.12914  36.4%     -  255s
     0     0  635.67478    0 1657  998.00000  635.67478  36.3%     -  264s
     0     0  635.80914    0 1686  998.00000  635.80914  36.3%     -  270s
     0     0  635.84325    0 1695  998.00000  635.84325  36.3%     -  273s
     0     0  635.85419    0 1688  998.00000  635.85419  36.3%     -  275s
     0     0  636.47657    0 1692  998.00000  636.47657  36.2%     -  286s
     0     0  636.59651    0 1688  998.00000  636.59651  36.2%     -  295s
     0     0  636.63128    0 1693  998.00000  636.63128  36.2%     -  298s
     0     0  636.64504    0 1689  998.00000  636.64504  36.2%     -  299s
     0     0  636.99986    0 1694  998.00000  636.99986  36.2%     -  307s
     0     0  637.01886    0 1675  998.00000  637.01886  36.2%     -  310s
     0     0  637.25089    0 1692  998.00000  637.25089  36.1%     -  317s
     0     0  637.31648    0 1696  998.00000  637.31648  36.1%     -  321s
     0     0  637.32788    0 1701  998.00000  637.32788  36.1%     -  322s
     0     0  637.60347    0 1678  998.00000  637.60347  36.1%     -  329s
     0     0  637.64301    0 1668  998.00000  637.64301  36.1%     -  332s
     0     0  637.65584    0 1677  998.00000  637.65584  36.1%     -  334s
     0     0  638.20421    0 1680  998.00000  638.20421  36.1%     -  344s
     0     0  638.35542    0 1673  998.00000  638.35542  36.0%     -  351s
     0     0  638.37676    0 1679  998.00000  638.37676  36.0%     -  353s
     0     0  638.38751    0 1689  998.00000  638.38751  36.0%     -  354s
     0     0  638.47082    0 1680  998.00000  638.47082  36.0%     -  359s
     0     0  638.50976    0 1664  998.00000  638.50976  36.0%     -  361s
     0     0  638.51581    0 1676  998.00000  638.51581  36.0%     -  362s
     0     0  638.75061    0 1704  998.00000  638.75061  36.0%     -  368s
     0     0  638.79365    0 1689  998.00000  638.79365  36.0%     -  372s
     0     0  638.81340    0 1708  998.00000  638.81340  36.0%     -  374s
     0     0  638.89540    0 1706  998.00000  638.89540  36.0%     -  378s
     0     0  638.89540    0 1705  998.00000  638.89540  36.0%     -  383s
     0     0  638.90225    0 1355  998.00000  638.90225  36.0%     -  441s
     0     0  638.90225    0 1571  998.00000  638.90225  36.0%     -  478s
     0     0  638.90225    0 1610  998.00000  638.90225  36.0%     -  507s
     0     0  638.90225    0 1649  998.00000  638.90225  36.0%     -  526s
     0     0  638.96603    0 1666  998.00000  638.96603  36.0%     -  538s
     0     0  639.08236    0 1674  998.00000  639.08236  36.0%     -  542s
     0     0  639.11174    0 1692  998.00000  639.11174  36.0%     -  544s
     0     0  639.12003    0 1682  998.00000  639.12003  36.0%     -  545s
     0     0  639.43728    0 1707  998.00000  639.43728  35.9%     -  555s
     0     0  639.48095    0 1706  998.00000  639.48095  35.9%     -  560s
     0     0  639.49108    0 1707  998.00000  639.49108  35.9%     -  561s
     0     0  639.96675    0 1692  998.00000  639.96675  35.9%     -  579s
     0     0  640.06464    0 1671  998.00000  640.06464  35.9%     -  584s
     0     0  640.08214    0 1690  998.00000  640.08214  35.9%     -  585s
     0     0  640.30279    0 1712  998.00000  640.30279  35.8%     -  598s
     0     0  640.34068    0 1705  998.00000  640.34068  35.8%     -  602s
     0     0  640.34830    0 1708  998.00000  640.34830  35.8%     -  603s
     0     0  640.39557    0 1727  998.00000  640.39557  35.8%     -  607s
     0     0  640.43452    0 1720  998.00000  640.43452  35.8%     -  610s
     0     0  640.44053    0 1720  998.00000  640.44053  35.8%     -  611s
     0     0  640.45390    0 1723  998.00000  640.45390  35.8%     -  615s
     0     0  640.45390    0 1723  998.00000  640.45390  35.8%     -  619s
     0     2  640.45984    0 1718  998.00000  640.45984  35.8%     -  666s
     2     5  654.49359    1 1459  998.00000  640.48157  35.8%  9780  737s
     3     5  643.78939    2 1481  998.00000  640.48194  35.8%  9270  769s
     4     6  641.72925    2 1662  998.00000  641.72925  35.7%  8160  789s
     5     7  642.61649    3 1647  998.00000  641.74106  35.7%  7010  799s
     6     8  645.45763    4 1667  998.00000  641.74106  35.7%  6653  820s
     7     9  664.40342    4 1329  998.00000  641.74106  35.7%  8927  904s
     8    10  645.96366    5 1664  998.00000  641.74106  35.7%  8109  912s
     9    11  676.80853    5 1393  998.00000  641.74106  35.7% 11804 1051s
    10    12  647.66411    6 1674  998.00000  641.74106  35.7% 11326 1072s
    11    13  686.25600    6 1456  998.00000  641.74106  35.7% 11731 1114s
    12    14  647.79787    7 1686  998.00000  641.74106  35.7% 10906 1119s
    13    15  677.38696    7 1436  998.00000  641.74106  35.7% 11208 1158s
    14    16  647.97860    8 1704  998.00000  641.74106  35.7% 10528 1162s
    15    17  677.19315    8 1481  998.00000  641.74106  35.7% 10809 1201s
    16    18  648.39991    9 1673  998.00000  641.74106  35.7% 10348 1211s
    17    19  666.53348   10 1490  998.00000  641.74106  35.7% 10785 1257s
    18    20  648.74367   10 1678  998.00000  641.74106  35.7% 10290 1263s
    19    21  648.97175   11 1684  998.00000  641.74106  35.7%  9830 1268s
    20    22  679.11728   12 1405  998.00000  641.74106  35.7% 10445 1339s
    21    23  649.20731   12 1692  998.00000  641.74106  35.7% 10067 1344s
    22    24  669.75428   13 1455  998.00000  641.74106  35.7% 10572 1395s
    23    25  649.45294   13 1688  998.00000  641.74106  35.7% 10184 1400s
    24    26  668.08157   14 1495  998.00000  641.74106  35.7% 10907 1485s
    25    27  649.58838   14 1667  998.00000  641.74106  35.7% 10550 1490s
    26    28  669.63507   15 1437  998.00000  641.74106  35.7% 10895 1537s
    27    29  650.73429   15 1621  998.00000  641.74106  35.7% 10628 1550s
    28    30  665.86671   16 1408  998.00000  641.74106  35.7% 11273 1646s
    29    31  651.11233   16 1618  998.00000  641.74106  35.7% 10993 1655s
    30    32  672.69595   17 1511  998.00000  641.74106  35.7% 11243 1716s
    31    33  652.12103   17 1627  998.00000  641.74106  35.7% 10982 1727s
    32    34  681.44303   18 1469  998.00000  641.74106  35.7% 11493 1812s
    33    35  653.32233   18 1589  998.00000  641.74106  35.7% 11318 1828s
    34    36  677.63797   19 1450  998.00000  641.74106  35.7% 11527 1880s
    36    38  654.02918   20 1587  998.00000  641.74106  35.7% 10971 1891s
    37    39  675.27876   21 1343  998.00000  641.74106  35.7% 11516 2002s
    38    40  656.39762   21 1583  998.00000  641.74106  35.7% 11389 2026s
    40    42  672.03213   22 1456  998.00000  641.74106  35.7% 11493 2107s
    41    43  657.72260   23 1548  998.00000  641.74106  35.7% 11338 2120s
    42    44  674.53862   23 1423  998.00000  641.74106  35.7% 11468 2172s
    43    45  659.54813   24 1557  998.00000  641.74106  35.7% 11287 2186s
    44    46  689.95877   24 1425  998.00000  641.74106  35.7% 11494 2255s
    45    47  660.03358   25 1535  998.00000  641.74106  35.7% 11326 2266s
    46    48  687.24313   25 1421  998.00000  641.74106  35.7% 11449 2316s
    47    49  660.87678   26 1494  998.00000  641.74106  35.7% 11257 2323s
    48    50  711.33669   26 1445  998.00000  641.74106  35.7% 11807 2473s
    49    51  662.44537   27 1498  998.00000  641.74106  35.7% 11677 2486s
    50    52  687.12421   27 1363  998.00000  641.74106  35.7% 11800 2519s
    51    53  662.87556   28 1515  998.00000  641.74106  35.7% 11633 2526s
    52    54  688.61101   28 1444  998.00000  641.74106  35.7% 11717 2563s
    53    55  663.22760   29 1509  998.00000  641.74106  35.7% 11521 2567s
    54    56  688.38337   29 1429  998.00000  641.74106  35.7% 11647 2619s
    55    57  663.59918   30 1500  998.00000  641.74106  35.7% 11478 2623s
    56    58  688.31303   30 1420  998.00000  641.74106  35.7% 11588 2664s
    57    59  664.51429   31 1499  998.00000  641.74106  35.7% 11425 2671s
    58    60  687.37637   31 1343  998.00000  641.74106  35.7% 11585 2735s
    59    61  666.94962   32 1499  998.00000  641.74106  35.7% 11479 2750s
    60    62  689.19623   32 1442  998.00000  641.74106  35.7% 11519 2785s
    61    63  669.99788   33 1490  998.00000  641.74106  35.7% 11410 2802s
    62    64  694.74542   33 1409  998.00000  641.74106  35.7% 11710 2902s
    63    65  672.21424   34 1472  998.00000  641.74106  35.7% 11603 2915s
    64    66  689.84494   34 1357  998.00000  641.74106  35.7% 11616 2949s
    65    67  672.86781   35 1462  998.00000  641.74106  35.7% 11485 2958s
    66    68  704.68626   35 1383  998.00000  641.74106  35.7% 11505 2991s
    67    69  673.86570   36 1446  998.00000  641.74106  35.7% 11394 3004s
    68    70  688.24423   36 1293  998.00000  641.74106  35.7% 11369 3027s
    69    71  675.46090   37 1459  998.00000  641.74106  35.7% 11235 3034s
    70    72  696.75518   38 1336  998.00000  641.74106  35.7% 11324 3088s
    71    73  682.78163   38 1492  998.00000  641.74106  35.7% 11296 3113s
    72    74  701.76105   39 1332  998.00000  641.74106  35.7% 11450 3173s
    73    75  683.22491   39 1489  998.00000  641.74106  35.7% 11334 3180s
    74    76  706.67955   40 1417  998.00000  641.74106  35.7% 11356 3215s
    75    77  684.65524   40 1462  998.00000  641.74106  35.7% 11265 3225s
    76    78  752.77799   41 1320  998.00000  641.74106  35.7% 11315 3260s
    77    79  685.31539   41 1447  998.00000  641.74106  35.7% 11196 3267s
    78    80  705.56990   42 1419  998.00000  641.74106  35.7% 11345 3340s
    79    81  686.33267   42 1492  998.00000  641.74106  35.7% 11268 3352s
    80    82  756.38676   43 1371  998.00000  641.74106  35.7% 11415 3393s
    81    83  686.67552   43 1441  998.00000  641.74106  35.7% 11289 3399s
    82    84  757.45979   44 1373  998.00000  641.74106  35.7% 11473 3468s
    83    85  687.22485   44 1465  998.00000  641.74106  35.7% 11371 3474s
    84    86  706.99343   45 1336  998.00000  641.74106  35.7% 11428 3509s
    85    87  687.44351   45 1430  998.00000  641.74106  35.7% 11311 3513s
    86    88  747.30601   46 1226  998.00000  641.74106  35.7% 11396 3560s
    87    89  688.95166   46 1505  998.00000  641.74106  35.7% 11322 3571s

Cutting planes:
  Gomory: 1
  Cover: 1
  MIR: 40
  Zero half: 52
  Mod-K: 1
  RLT: 905

Explored 88 nodes (1130452 simplex iterations) in 3600.01 seconds
Thread count was 1 (of 40 available processors)

Solution count 1: 998 

Time limit reached
Best objective 9.980000000000e+02, best bound 6.420000000000e+02, gap 35.6713%

User-callback calls 37285, time in user-callback 0.08 sec
